Geometry = GenFormat {
192 S
 O H
   1  1        0.000000    0.000000    0.000000
   2  1        0.919217   -0.022920   -8.450093
   3  1       -1.724066    1.460145   -8.010156
   4  1       -3.131608   -3.993985   -1.175014
   5  1       -3.575435    3.821222    0.476677
   6  1        2.058211    1.222908    0.808900
   7  1       -0.171918   -4.818154    3.190816
   8  1        5.585465   -6.966273   -1.744137
   9  1       -3.801663   -5.313055   -4.603741
  10  1       -5.848549   -0.368471    0.804106
  11  1        6.267244   -3.433135    1.944561
  12  1       -5.851812    2.382239    5.977849
  13  1        5.106282    2.688942    3.955392
  14  1        4.191571    3.529800    1.042527
  15  1       -5.369146    0.736128   -1.981083
  16  1       -5.309487   -1.738650   -3.775244
  17  1       -2.205496    7.310768   -2.912280
  18  1        3.058654   -2.012658    0.936865
  19  1       -0.911041    2.252716   -2.441468
  20  1        2.482663   -5.640685   -0.919291
  21  1       -1.450045    6.209112    0.259215
  22  1        4.517681   -4.533533   -5.810835
  23  1        1.109285    3.609377    4.744790
  24  1        2.079278    3.595246   -2.044517
  25  1       -2.355989   -1.642695    2.108910
  26  1       -2.816920    2.698885   -4.728649
  27  1       -4.116354    0.351301   -4.825207
  28  1       -1.012904   -6.842255   -3.615850
  29  1       -7.690141   -0.538108   -3.172179
  30  1        2.045258   -1.315898   -3.718671
  31  1       -0.888919    3.861820    2.860273
  32  1       -4.946677    3.032704    4.049991
  33  1        4.940438   -0.417838    2.759862
  34  1       -2.894100    0.547975    0.232039
  35  1        2.770660    2.724862   -4.818333
  36  1       -1.711527   -0.505740   -3.842640
  37  1       -2.075942   -4.336811    5.349924
  38  1        3.773149    5.328635   -5.546292
  39  1        4.928779   -1.387657    5.281926
  40  1        0.338133   -3.288267   -4.022225
  41  1        2.613760    4.976298    3.050372
  42  1       -0.148082   -2.357505    3.735673
  43  1        1.495432    4.612122    0.652248
  44  1       -7.330445    1.499397    0.750110
  45  1        0.505108   -2.294241    0.017977
  46  1       -4.278958    3.907036   -3.345694
  47  1        3.582746    1.897376   -1.230927
  48  1        3.349674    1.089666    4.980911
  49  1       -1.876063   -6.787978    5.319376
  50  1       -3.801321   -2.507804   -5.437804
  51  1       -0.708404   -3.716611   -1.748243
  52  1       -5.381778   -4.295305   -2.194654
  53  1       -5.010957   -2.694577    4.358988
  54  1        4.771756   -5.528100    0.883959
  55  1        8.516255   -1.417053   -0.695181
  56  1        3.807226   -3.380747   -8.369485
  57  1       -4.072066   -5.086125    2.637435
  58  1       -4.486248    0.449964    3.523763
  59  1        5.320140    4.896244    2.794398
  60  1        3.895296   -3.434718   -1.213492
  61  1        1.646628   -4.551131    6.712007
  62  1        1.880202   -3.988281    0.519445
  63  2       -2.138933   -1.920101   -2.063900
  64  2       -0.391802   -0.863906   -5.719176
  65  2        0.788003    0.615655    0.000000
  66  2        1.476800    0.573659   -9.027306
  67  2       -1.816066    1.264599   -7.033796
  68  2       -2.864668   -4.957051   -1.210060
  69  2       -3.802905    3.513878    1.400678
  70  2        2.860433    1.355290    1.391048
  71  2        0.424824   -5.575993    2.927071
  72  2        6.412656   -7.451491   -2.027508
  73  2       -4.197518   -6.138502   -5.006129
  74  2       -5.436172    0.257692    1.465805
  75  2        7.162886   -3.454804    2.388786
  76  2       -5.969923    3.350190    6.199439
  77  2        5.775934    2.183437    4.499461
  78  2        3.198097    3.483531    0.938368
  79  2       -5.664944    1.691331   -1.972662
  80  2       -6.141861   -1.186677   -3.725649
  81  2       -2.157761    6.312015   -2.926198
  82  2        2.103198   -2.191687    0.702272
  83  2       -0.682176    1.671191   -3.222128
  84  2        1.825397   -6.187721   -0.400896
  85  2       -1.997452    6.110943   -0.571862
  86  2        5.083849   -4.807886   -6.588115
  87  2        1.710901    4.395570    4.603583
  88  2        1.504292    2.777117   -2.050575
  89  2       -1.804570   -2.436848    2.364330
  90  2       -3.326670    3.483947   -5.080519
  91  2       -4.185626   -0.415163   -4.186681
  92  2       -1.403954   -7.762565   -3.625309
  93  2       -8.569419   -0.119247   -2.945450
  94  2        1.199216   -1.536717   -4.203885
  95  2       -1.378110    4.264689    3.633816
  96  2       -5.420593    2.162537    4.184872
  97  2        4.002772   -0.105570    2.607378
  98  2       -1.949271    0.843754    0.091348
  99  2        2.799843    2.054794   -4.076620
 100  2       -2.364939   -0.393888   -3.093961
 101  2       -1.353505   -3.646000    5.378981
 102  2        3.954474    6.014845   -6.250719
 103  2        4.768107   -2.350733    5.497909
 104  2        1.119670   -2.934775   -3.508198
 105  2        1.754265    5.473770    3.167723
 106  2       -0.645018   -3.185674    3.476499
 107  2        0.628021    5.085493    0.805542
 108  2       -6.860397    1.646901   -0.120107
 109  2        0.786627   -1.679978   -0.719185
 110  2       -4.459468    2.923754   -3.369189
 111  2        3.288120    1.925825   -0.275748
 112  2        4.271131    1.478065    4.987582
 113  2       -2.309948   -6.352932    4.530415
 114  2       -3.396068   -1.698431   -5.012756
 115  2       -0.942402   -3.640691   -0.778984
 116  2       -5.852090   -4.963687   -1.618414
 117  2       -5.589203   -1.878770    4.350531
 118  2        3.931006   -5.662309    1.408466
 119  2        9.160058   -1.993788   -0.192313
 120  2        3.407535   -2.579149   -7.924887
 121  2       -4.363326   -5.976591    2.287839
 122  2       -3.910198    1.191298    3.179421
 123  2        4.926461    4.100479    3.254567
 124  2        4.726149   -2.880782   -1.266581
 125  2        2.611149   -4.485412    6.456351
 126  2        2.488047   -3.352156    0.044208
 127  2       -1.842912   -1.836933   -3.015443
 128  2       -0.671531   -0.675908   -6.660659
 129  2       -0.788003    0.615655    0.000000
 130  2        1.585049   -0.480780   -7.861014
 131  2       -1.042013    0.800474   -8.325781
 132  2       -2.264505   -3.506105   -1.074585
 133  2       -2.593565    4.006146    0.518088
 134  2        1.771811    2.152429    0.576635
 135  2        0.271350   -4.431307    3.999422
 136  2        4.912626   -7.206025   -2.443986
 137  2       -4.563431   -4.896550   -4.107542
 138  2       -6.723441    0.059972    0.578313
 139  2        5.766924   -4.186106    2.371989
 140  2       -6.774389    2.072337    5.748082
 141  2        5.589178    2.889891    3.103095
 142  2        4.341285    4.369840    1.563967
 143  2       -4.370990    0.792166   -2.003992
 144  2       -4.920662   -1.510384   -4.667819
 145  2       -1.349164    7.599878   -3.340171
 146  2        3.224970   -1.090703    0.587124
 147  2       -1.154568    3.129501   -2.856104
 148  2        3.180292   -6.300721   -1.197944
 149  2       -1.884971    6.965745    0.747402
 150  2        3.659482   -5.027506   -5.950353
 151  2        0.779555    3.722332    5.682073
 152  2        1.579598    4.237818   -1.463655
 153  2       -3.296137   -1.982419    2.135160
 154  2       -3.321801    2.430634   -3.908212
 155  2       -4.887361    0.217873   -5.447883
 156  2       -0.026547   -6.997957   -3.669105
 157  2       -7.817896   -1.504525   -2.949247
 158  2        1.835716   -0.461231   -3.243680
 159  2       -1.306496    4.291516    2.059666
 160  2       -4.243901    2.822615    3.370323
 161  2        4.926476   -0.779221    3.692164
 162  2       -3.432298    1.376948    0.079963
 163  2        2.971819    3.594241   -4.367007
 164  2       -1.931790   -1.403590   -4.223863
 165  2       -2.921339   -3.804984    5.399356
 166  2        4.209681    4.500302   -5.897412
 167  2        4.010106   -1.006150    5.179590
 168  2        0.456202   -2.902893   -4.937390
 169  2        3.310074    5.694010    3.046283
 170  2        0.182640   -2.552783    4.658966
 171  2        1.933976    5.140159   -0.074963
 172  2       -7.941614    0.729276    0.567447
 173  2        0.998999   -1.954100    0.818199
 174  2       -5.160662    4.320364   -3.573153
 175  2        4.550578    1.651375   -1.178340
 176  2        2.775431    1.822917    5.345009
 177  2       -1.524967   -7.651289    4.956877
 178  2       -3.023432   -2.976201   -5.856700
 179  2        0.216240   -4.097402   -1.744779
 180  2       -4.429014   -4.598932   -2.189031
 181  2       -5.635838   -3.431355    4.617178
 182  2        4.914182   -6.405811    0.426446
 183  2        8.579481   -1.747957   -1.636714
 184  2        4.735223   -3.425000   -7.999561
 185  2       -3.124031   -5.234933    2.918621
 186  2       -5.409543    0.709640    3.240787
 187  2        6.305377    4.726821    2.818582
 188  2        3.948525   -4.028244   -2.016532
 189  2        1.668526   -4.720947    7.697230
 190  2        2.358380   -4.864945    0.466646
 191  2       -1.374926   -1.544692   -1.539170
 192  2        0.048750   -0.016163   -5.423837
  0.000000000  0.00000000  0.00000000
  24.800    0.000    0.000
   0.000   24.800    0.000
   0.000    0.000   24.800
}
Hamiltonian = DFTB {
  SCC = Yes
  SCCTolerance = 1.0e-8
  MaxSCCIterations = 1000
  Mixer = Broyden {
    MixingParameter = 0.2
    InverseJacobiWeight = 1.000000000000000E-002
    MinimalWeight = 1.00000000000000
    MaximalWeight = 100000.000000000
    WeightFactor = 1.000000000000000E-002
  }
 SlaterKosterFiles      = Type2FileNames {
    Prefix             =  "/home/bo/QM-Software/dftb-slater/3ob-3-1/"
    Separator           = "-"
    suffix              = ".skf"
    LowercaseTypename   = No
  }
  MaxAngularMomentum = {
    O = "p"
    H = "s"
  }
  Charge = 0.0
  SpinPolarisation = {}
  Filling = Fermi {
    Temperature [Kelvin] = 0.0
  }
  HCorrection = Damping {
     Exponent = 4.00
  }
  Dispersion = DftD3 {
     Damping = ZeroDamping {
        sr6 = 1.25
        alpha6 = 29.61
     }
     s6 = 1.0
     s8 = 0.49
     HHRepulsion = Yes
  }
  PolynomialRepulsive = {}
  ShellResolvedSCC = No
  OldSKInterpolation = No
  ReadInitialCharges = No
  InitialCharges = {}
  ElectricField = {}
  Solver = RelativelyRobust {}
  ThirdOrderFull = Yes
  HubbardDerivs {
     O = -0.1575
     H = -0.1857
  }
  KPointsAndWeights{
   0.0  0.0  0.0  1.0
  }
}

Options = {
   WriteDetailedOut = No
   RestartFrequency = 0
}

Analysis = {
  CalculateForces = Yes
  WriteBandOut = No
}
