NPAR = 8
SYSTEM = H2O_64
LVDW = .TRUE.
VDW_SCALING = 1.2
VDW_S6 = 1.2
PREC = Normal
ENCUT = 400.000
ISIF = 3
NELMIN = 4
EDIFF = 1.0e-05
VOSKOWN = 0
ISYM = 0
NBLOCK = 1
NELM = 100
ALGO = VeryFast
ISPIN = 1
INIWAV = 1
ISTART = 0
ICHARG = 2
LWAVE = .FALSE.
LCHARG = .FALSE.
ADDGRID = .FALSE.
GGA = B5
ALDAX = 1.00
AGGAX = 1.00
AGGAC = 1.00
ALDAC = 0.00
ISMEAR = -1
SIGMA = 0.2
LREAL = Auto
NWRITE = 1
IBRION = 1
NSW = 100
